Welcome to the CBC MILP Solver
Version: Devel (unstable)
Build Date: Feb  6 2022
command line - -import /home/danilo/psp-janniele/J30/j3047/j3047_7.lp -timeM elapsed -seconds 10800 -solve -quit (default strategy 1)
seconds was changed from 1e+08 to 10800
Continuous objective value is 3.55271e-15 - 0.077708 seconds
Cgl0002I 20 variables fixed
Cgl0003I 0 fixed, 0 tightened bounds, 7 strengthened rows, 0 substitutions
Cgl0003I 0 fixed, 0 tightened bounds, 5 strengthened rows, 0 substitutions
Cgl0003I 0 fixed, 0 tightened bounds, 5 strengthened rows, 0 substitutions
Cgl0003I 0 fixed, 0 tightened bounds, 4 strengthened rows, 0 substitutions
Cgl0003I 0 fixed, 0 tightened bounds, 4 strengthened rows, 0 substitutions
Cgl0003I 0 fixed, 0 tightened bounds, 4 strengthened rows, 0 substitutions
Cgl0003I 0 fixed, 0 tightened bounds, 4 strengthened rows, 0 substitutions
Cgl0003I 0 fixed, 0 tightened bounds, 4 strengthened rows, 0 substitutions
Cgl0003I 0 fixed, 0 tightened bounds, 4 strengthened rows, 0 substitutions
Cgl0004I processed model has 256 rows, 466 columns (466 integer (464 of which binary)) and 6726 elements
Coin3009W Conflict graph built in 0.007 seconds, density: 1.227%
Cgl0015I Clique Strengthening extended 0 cliques, 0 were dominated
Cbc0045I Cutoff increment increased from 0.0001 to 0.9999
Cbc0045I 1 integer variables out of 466 objects (466 integer) have cost of -1 - high priority
Cbc0045I branch on satisfied Y create fake objective Y random cost Y
Cbc0038I Initial state - 57 integers unsatisfied sum - 15.2972
Cbc0038I Pass   1: suminf.   11.95911 (58) obj. 0.150256 iterations 63
Cbc0038I Pass   2: suminf.   11.21117 (60) obj. 0.155535 iterations 22
Cbc0038I Pass   3: suminf.   10.33870 (53) obj. 0.0988315 iterations 40
Cbc0038I Pass   4: suminf.    9.51005 (47) obj. 0.0571429 iterations 45
Cbc0038I Pass   5: suminf.    9.10396 (49) obj. 0.096131 iterations 37
Cbc0038I Pass   6: suminf.    9.00731 (60) obj. 0.0367256 iterations 14
Cbc0038I Pass   7: suminf.    8.99722 (60) obj. 0.0381951 iterations 5
Cbc0038I Pass   8: suminf.    9.86663 (51) obj. 0.00808217 iterations 52
Cbc0038I Pass   9: suminf.    8.51679 (45) obj. -5.77316e-15 iterations 57
Cbc0038I Pass  10: suminf.    8.27674 (47) obj. -5.77316e-15 iterations 9
Cbc0038I Pass  11: suminf.   11.48101 (44) obj. 0.0362305 iterations 114
Cbc0038I Pass  12: suminf.    9.37902 (49) obj. -5.77316e-15 iterations 95
Cbc0038I Pass  13: suminf.    8.14434 (47) obj. -5.77316e-15 iterations 83
Cbc0038I Pass  14: suminf.   10.85184 (49) obj. 0.0637597 iterations 76
Cbc0038I Pass  15: suminf.    8.56689 (54) obj. 0.0150057 iterations 49
Cbc0038I Pass  16: suminf.    7.99430 (44) obj. 9.76996e-15 iterations 35
Cbc0038I Pass  17: suminf.    7.96362 (42) obj. 3.44169e-15 iterations 25
Cbc0038I Pass  18: suminf.    7.66706 (46) obj. -5.55112e-15 iterations 15
Cbc0038I Pass  19: suminf.   11.27549 (40) obj. -2.66454e-15 iterations 98
Cbc0038I Pass  20: suminf.    8.37677 (43) obj. -5.77316e-15 iterations 74
Cbc0038I Pass  21: suminf.    9.38980 (45) obj. 0.178274 iterations 52
Cbc0038I Pass  22: suminf.    8.14434 (46) obj. -5.55112e-15 iterations 43
Cbc0038I Pass  23: suminf.    8.14434 (47) obj. 3.33067e-16 iterations 8
Cbc0038I Pass  24: suminf.   10.23529 (46) obj. 0.0915166 iterations 74
Cbc0038I Pass  25: suminf.    9.19290 (46) obj. 0.0982177 iterations 19
Cbc0038I Pass  26: suminf.    8.77362 (44) obj. 0.142892 iterations 26
Cbc0038I Pass  27: suminf.    8.48038 (51) obj. 0.0976869 iterations 36
Cbc0038I Pass  28: suminf.   11.69110 (46) obj. 0.333333 iterations 77
Cbc0038I Pass  29: suminf.    9.26464 (42) obj. 0.333333 iterations 58
Cbc0038I Pass  30: suminf.    9.26464 (42) obj. 0.333333 iterations 9
Cbc0038I Pass  31: suminf.    8.47343 (40) obj. 1 iterations 45
Cbc0038I Pass  32: suminf.    7.21352 (35) obj. 1 iterations 49
Cbc0038I Pass  33: suminf.    6.95071 (37) obj. 1 iterations 36
Cbc0038I Pass  34: suminf.    6.80095 (35) obj. 1 iterations 30
Cbc0038I Pass  35: suminf.    8.04127 (32) obj. 1 iterations 67
Cbc0038I Pass  36: suminf.    7.64181 (33) obj. 1 iterations 24
Cbc0038I Pass  37: suminf.    8.40226 (36) obj. 1 iterations 81
Cbc0038I Pass  38: suminf.    7.50490 (37) obj. 1 iterations 49
Cbc0038I Pass  39: suminf.    7.30001 (32) obj. 1 iterations 5
Cbc0038I Pass  40: suminf.    8.68482 (32) obj. 1 iterations 102
Cbc0038I Pass  41: suminf.    7.70791 (33) obj. 1 iterations 41
Cbc0038I Pass  42: suminf.    7.19948 (35) obj. 1 iterations 40
Cbc0038I Pass  43: suminf.    7.01966 (32) obj. 1 iterations 73
Cbc0038I Pass  44: suminf.    6.31278 (22) obj. 1 iterations 56
Cbc0038I Pass  45: suminf.    6.14420 (25) obj. 1 iterations 17
Cbc0038I Pass  46: suminf.    7.12915 (25) obj. 1 iterations 70
Cbc0038I Pass  47: suminf.    5.76827 (25) obj. 1 iterations 40
Cbc0038I Pass  48: suminf.    4.81000 (18) obj. 1 iterations 43
Cbc0038I Pass  49: suminf.    4.63310 (23) obj. 1 iterations 34
Cbc0038I Pass  50: suminf.    4.63175 (25) obj. 1 iterations 10
Cbc0038I Pass  51: suminf.    7.90400 (30) obj. 1 iterations 83
Cbc0038I Pass  52: suminf.    3.51984 (20) obj. 1 iterations 77
Cbc0038I Pass  53: suminf.    2.69444 (15) obj. 1 iterations 29
Cbc0038I Pass  54: suminf.    4.87998 (24) obj. 1 iterations 53
Cbc0038I Pass  55: suminf.    2.69444 (15) obj. 1 iterations 69
Cbc0038I Pass  56: suminf.   11.20607 (46) obj. 1 iterations 119
Cbc0038I Pass  57: suminf.    6.27425 (25) obj. 1 iterations 88
Cbc0038I Pass  58: suminf.    5.80641 (27) obj. 1 iterations 19
Cbc0038I Pass  59: suminf.    4.74260 (26) obj. 1 iterations 89
Cbc0038I Pass  60: suminf.    3.99098 (26) obj. 1 iterations 86
Cbc0038I Pass  61: suminf.    7.84746 (30) obj. 1 iterations 79
Cbc0038I Pass  62: suminf.    5.63137 (23) obj. 1 iterations 81
Cbc0038I Pass  63: suminf.    5.07778 (22) obj. 1 iterations 42
Cbc0038I Pass  64: suminf.    7.93354 (28) obj. 1 iterations 70
Cbc0038I Pass  65: suminf.    6.76966 (30) obj. 1 iterations 34
Cbc0038I Pass  66: suminf.    6.35299 (29) obj. 1 iterations 4
Cbc0038I Pass  67: suminf.    6.11204 (23) obj. 1 iterations 43
Cbc0038I Pass  68: suminf.    3.77778 (20) obj. 1 iterations 69
Cbc0038I Pass  69: suminf.    3.77778 (20) obj. 1 iterations 0
Cbc0038I Pass  70: suminf.    4.41270 (22) obj. 1 iterations 64
Cbc0038I Pass  71: suminf.   11.85273 (60) obj. 1 iterations 101
Cbc0038I Pass  72: suminf.    6.51010 (29) obj. 1 iterations 127
Cbc0038I Pass  73: suminf.    6.14709 (31) obj. 1 iterations 30
Cbc0038I Pass  74: suminf.    6.45421 (30) obj. 1 iterations 52
Cbc0038I Pass  75: suminf.    4.47633 (31) obj. 1 iterations 40
Cbc0038I Pass  76: suminf.    5.11791 (28) obj. 1 iterations 63
Cbc0038I Pass  77: suminf.    4.93359 (32) obj. 1 iterations 20
Cbc0038I Pass  78: suminf.    4.77855 (33) obj. 1 iterations 10
Cbc0038I Pass  79: suminf.    6.59175 (38) obj. 1 iterations 116
Cbc0038I Pass  80: suminf.    6.21669 (37) obj. 1 iterations 55
Cbc0038I Pass  81: suminf.    6.33568 (33) obj. 1 iterations 84
Cbc0038I Pass  82: suminf.    4.83492 (32) obj. 1 iterations 26
Cbc0038I Pass  83: suminf.    4.39988 (33) obj. 1 iterations 38
Cbc0038I Pass  84: suminf.    4.67612 (30) obj. 1 iterations 61
Cbc0038I Pass  85: suminf.    4.19314 (32) obj. 1 iterations 22
Cbc0038I Pass  86: suminf.    3.07608 (28) obj. 1 iterations 8
Cbc0038I Pass  87: suminf.    2.53375 (22) obj. 1 iterations 43
Cbc0038I Pass  88: suminf.    8.20542 (32) obj. 1 iterations 82
Cbc0038I Pass  89: suminf.    6.03956 (26) obj. 1 iterations 40
Cbc0038I Pass  90: suminf.    5.94324 (32) obj. 1 iterations 11
Cbc0038I Pass  91: suminf.    5.90681 (33) obj. 1 iterations 95
Cbc0038I Pass  92: suminf.    5.02511 (25) obj. 1 iterations 41
Cbc0038I Pass  93: suminf.    4.69594 (22) obj. 1 iterations 28
Cbc0038I Pass  94: suminf.    3.96573 (26) obj. 1 iterations 47
Cbc0038I Pass  95: suminf.    3.96573 (26) obj. 1 iterations 5
Cbc0038I Pass  96: suminf.    6.39818 (29) obj. 1 iterations 62
Cbc0038I Pass  97: suminf.    5.89874 (21) obj. 1 iterations 42
Cbc0038I Pass  98: suminf.    5.59154 (24) obj. 1 iterations 23
Cbc0038I Pass  99: suminf.    4.90437 (24) obj. 1 iterations 61
Cbc0038I Pass 100: suminf.   13.12942 (53) obj. 1 iterations 135
Cbc0038I No solution found this major pass
Cbc0038I Before mini branch and bound, 215 integers at bound fixed and 0 continuous
Cbc0038I Full problem 256 rows 466 columns, reduced to 200 rows 238 columns - too large
Cbc0038I Mini branch and bound did not improve solution (1.01 seconds)
Cbc0038I Full problem 257 rows 466 columns, reduced to 255 rows 466 columns - too large
Cbc0038I After 1.08 seconds - Feasibility pump exiting - took 0.58 seconds
Cbc0031I 51 added rows had average density of 77.294118
Cbc0013I At root node, 51 cuts changed objective from 0 to 1 in 100 passes
Cbc0014I Cut generator 0 (Probing) - 379 row cuts average 8.4 elements, 0 column cuts (6 active)  in 1.989 seconds - new frequency is 1
Cbc0014I Cut generator 1 (Gomory) - 2395 row cuts average 460.2 elements, 0 column cuts (0 active)  in 4.009 seconds - new frequency is 1
Cbc0014I Cut generator 2 (Knapsack) - 58 row cuts average 17.1 elements, 0 column cuts (0 active)  in 0.485 seconds - new frequency is 1
Cbc0014I Cut generator 3 (Clique) - 0 row cuts average 0.0 elements, 0 column cuts (0 active)  in 0.065 seconds - new frequency is -100
Cbc0014I Cut generator 4 (OddWheel) - 0 row cuts average 0.0 elements, 0 column cuts (0 active)  in 0.278 seconds - new frequency is -100
Cbc0014I Cut generator 5 (MixedIntegerRounding2) - 204 row cuts average 38.6 elements, 0 column cuts (0 active)  in 0.205 seconds - new frequency is 1
Cbc0014I Cut generator 6 (FlowCover) - 0 row cuts average 0.0 elements, 0 column cuts (0 active)  in 0.121 seconds - new frequency is -100
Cbc0014I Cut generator 7 (TwoMirCuts) - 391 row cuts average 181.9 elements, 0 column cuts (0 active)  in 0.630 seconds - new frequency is 1
Cbc0014I Cut generator 8 (ZeroHalf) - 224 row cuts average 53.0 elements, 0 column cuts (0 active)  in 0.500 seconds - new frequency is 1
Cbc0010I After 0 nodes, 1 on tree, 1e+50 best solution, best possible 1 (15.00 seconds)
Cbc0010I After 2 nodes, 3 on tree, 1e+50 best solution, best possible 1 (15.89 seconds)
Cbc0010I After 5 nodes, 6 on tree, 1e+50 best solution, best possible 1 (16.78 seconds)
Cbc0010I After 21 nodes, 11 on tree, 1e+50 best solution, best possible 1 (17.53 seconds)
Cbc0010I After 43 nodes, 14 on tree, 1e+50 best solution, best possible 1 (18.25 seconds)
Cbc0010I After 71 nodes, 11 on tree, 1e+50 best solution, best possible 1 (18.96 seconds)
Cbc0010I After 99 nodes, 9 on tree, 1e+50 best solution, best possible 1 (19.71 seconds)
Cbc0010I After 117 nodes, 4 on tree, 1e+50 best solution, best possible 1 (20.44 seconds)
Cbc0010I After 144 nodes, 11 on tree, 1e+50 best solution, best possible 1 (21.16 seconds)
Cbc0010I After 171 nodes, 8 on tree, 1e+50 best solution, best possible 1 (21.87 seconds)
Cbc0010I After 195 nodes, 9 on tree, 1e+50 best solution, best possible 1 (22.58 seconds)
Cbc0010I After 208 nodes, 3 on tree, 1e+50 best solution, best possible 1 (23.51 seconds)
Cbc0010I After 232 nodes, 9 on tree, 1e+50 best solution, best possible 1 (24.22 seconds)
Cbc0010I After 256 nodes, 7 on tree, 1e+50 best solution, best possible 1 (24.92 seconds)
Cbc0010I After 287 nodes, 8 on tree, 1e+50 best solution, best possible 1 (25.62 seconds)
Cbc0010I After 313 nodes, 8 on tree, 1e+50 best solution, best possible 1 (26.33 seconds)
Cbc0010I After 339 nodes, 11 on tree, 1e+50 best solution, best possible 1 (27.03 seconds)
Cbc0010I After 368 nodes, 7 on tree, 1e+50 best solution, best possible 1 (27.74 seconds)
Cbc0010I After 393 nodes, 8 on tree, 1e+50 best solution, best possible 1 (28.46 seconds)
Cbc0010I After 423 nodes, 9 on tree, 1e+50 best solution, best possible 1 (29.21 seconds)
Cbc0010I After 449 nodes, 8 on tree, 1e+50 best solution, best possible 1 (29.94 seconds)
Cbc0010I After 471 nodes, 14 on tree, 1e+50 best solution, best possible 1 (30.64 seconds)
Cbc0010I After 501 nodes, 14 on tree, 1e+50 best solution, best possible 1 (31.36 seconds)
Cbc0010I After 525 nodes, 12 on tree, 1e+50 best solution, best possible 1 (32.06 seconds)
Cbc0010I After 555 nodes, 5 on tree, 1e+50 best solution, best possible 1 (32.79 seconds)
Cbc0010I After 575 nodes, 16 on tree, 1e+50 best solution, best possible 1 (33.49 seconds)
Cbc0010I After 611 nodes, 17 on tree, 1e+50 best solution, best possible 1 (34.19 seconds)
Cbc0010I After 647 nodes, 23 on tree, 1e+50 best solution, best possible 1 (34.89 seconds)
Cbc0010I After 687 nodes, 21 on tree, 1e+50 best solution, best possible 1 (35.60 seconds)
Cbc0010I After 723 nodes, 18 on tree, 1e+50 best solution, best possible 1 (36.34 seconds)
Cbc0010I After 763 nodes, 17 on tree, 1e+50 best solution, best possible 1 (37.04 seconds)
Cbc0010I After 796 nodes, 9 on tree, 1e+50 best solution, best possible 1 (37.75 seconds)
Cbc0010I After 829 nodes, 11 on tree, 1e+50 best solution, best possible 1 (38.47 seconds)
Cbc0010I After 858 nodes, 13 on tree, 1e+50 best solution, best possible 1 (39.20 seconds)
Cbc0010I After 894 nodes, 9 on tree, 1e+50 best solution, best possible 1 (39.93 seconds)
Cbc0010I After 922 nodes, 13 on tree, 1e+50 best solution, best possible 1 (40.63 seconds)
Cbc0010I After 958 nodes, 12 on tree, 1e+50 best solution, best possible 1 (41.34 seconds)
Cbc0010I After 993 nodes, 4 on tree, 1e+50 best solution, best possible 1 (42.17 seconds)
Cbc0010I After 1019 nodes, 10 on tree, 1e+50 best solution, best possible 1 (42.87 seconds)
Cbc0010I After 1055 nodes, 5 on tree, 1e+50 best solution, best possible 1 (43.58 seconds)
Cbc0010I After 1078 nodes, 8 on tree, 1e+50 best solution, best possible 1 (44.28 seconds)
Cbc0010I After 1117 nodes, 22 on tree, 1e+50 best solution, best possible 1 (44.99 seconds)
Cbc0010I After 1174 nodes, 19 on tree, 1e+50 best solution, best possible 1 (45.70 seconds)
Cbc0010I After 1220 nodes, 17 on tree, 1e+50 best solution, best possible 1 (46.41 seconds)
Cbc0004I Integer solution of 1 found after 107137 iterations and 1253 nodes (46.97 seconds)
Cbc0001I Search completed - best objective 1, took 107137 iterations and 1253 nodes (46.97 seconds)
Cbc0032I Strong branching done 3062 times (80488 iterations), fathomed 23 nodes and fixed 52 variables
Cbc0035I Maximum depth 32, 0 variables fixed on reduced cost
Cuts at root node changed objective from 0 to 1
Probing was tried 973 times and created 1940 cuts of which 6 were active after adding rounds of cuts (3.22985 seconds)
Gomory was tried 958 times and created 2405 cuts of which 0 were active after adding rounds of cuts (5.20921 seconds)
Knapsack was tried 958 times and created 656 cuts of which 0 were active after adding rounds of cuts (3.5365 seconds)
Clique was tried 100 times and created 0 cuts of which 0 were active after adding rounds of cuts (0.065004 seconds)
OddWheel was tried 100 times and created 0 cuts of which 0 were active after adding rounds of cuts (0.278247 seconds)
MixedIntegerRounding2 was tried 958 times and created 1419 cuts of which 0 were active after adding rounds of cuts (1.49069 seconds)
FlowCover was tried 100 times and created 0 cuts of which 0 were active after adding rounds of cuts (0.121134 seconds)
TwoMirCuts was tried 958 times and created 2721 cuts of which 0 were active after adding rounds of cuts (1.43772 seconds)
ZeroHalf was tried 958 times and created 3915 cuts of which 0 were active after adding rounds of cuts (3.40776 seconds)

Result - Optimal solution found
Objective value:                1
Enumerated nodes:               1253
Total iterations:               107137
Time (CPU seconds):             47.0119
Time (Wallclock seconds):       47.0744
Total time (CPU seconds):       47.083   (Wallclock seconds):       47.1186
